c Result of efficient AIG-to-CNF conversion using package CNF
p cnf 340 1126
-2 -3 24 0
-2 24 199 271 0
2 -24 0
2 3 -271 0
2 3 -199 0
3 4 -16 0
3 4 -20 0
-3 -4 0
-3 16 20 0
-4 303 5 0
4 -303 0
4 -5 0
-5 6 12 14 15 0
5 -15 0
5 -6 0
5 -14 0
5 -12 0
-6 300 301 7 9 0
6 -300 0
6 -9 0
6 -7 0
6 -301 0
-7 292 298 299 8 0
7 -8 0
7 -299 0
7 -292 0
7 -298 0
-8 296 297 302 0
8 -296 0
8 -302 0
8 -297 0
-9 293 294 295 10 0
9 -10 0
9 -295 0
9 -293 0
9 -294 0
-10 288 289 11 0
10 -11 0
10 -289 0
10 -288 0
-11 284 285 290 291 0
11 -291 0
11 -290 0
11 -284 0
11 -285 0
-12 282 286 287 13 0
12 -13 0
12 -287 0
12 -282 0
12 -286 0
-13 280 281 0
13 -280 0
13 -281 0
-14 276 283 0
14 -276 0
14 -283 0
-15 277 278 279 0
15 -277 0
15 -279 0
15 -278 0
16 304 -17 0
16 304 -18 0
-16 -304 0
-16 17 18 0
17 305 306 307 -308 0
-17 308 0
-17 -307 0
-17 -305 0
-17 -306 0
18 305 -19 0
-18 -305 0
-18 19 0
19 306 307 -309 0
19 306 -307 -308 0
-19 -306 0
-19 -307 308 0
-19 307 309 0
20 304 -21 0
-20 -304 0
-20 21 0
21 305 -22 0
-21 -305 0
-21 22 0
22 306 -23 0
22 -306 307 -308 0
-22 -306 -307 0
-22 306 23 0
-22 -306 308 0
23 -307 -309 0
23 307 -310 0
-23 307 310 0
-23 -307 309 0
-24 25 170 184 0
-24 25 -177 184 0
24 -25 0
24 -184 0
24 -170 177 0
25 278 -26 54 116 0
-25 -278 0
-25 -116 0
-25 -54 0
-25 26 0
26 -303 5 -42 0
26 303 5 -27 0
-26 -5 0
-26 -303 42 0
-26 303 27 0
-27 304 28 0
-27 -304 35 0
27 -304 -35 0
27 304 -28 0
-28 305 32 0
-28 -305 29 0
28 -305 -29 0
28 305 -32 0
29 306 -30 0
29 -306 -31 0
-29 -306 31 0
-29 306 30 0
30 -307 -330 0
30 307 -331 0
-30 307 331 0
-30 -307 330 0
31 -307 -328 0
31 307 -329 0
-31 307 329 0
-31 -307 328 0
32 306 -33 0
32 -306 -34 0
-32 -306 34 0
-32 306 33 0
33 -307 -334 0
33 307 -335 0
-33 307 335 0
-33 -307 334 0
34 -307 -332 0
34 307 -333 0
-34 307 333 0
-34 -307 332 0
35 305 -36 0
35 -305 -39 0
-35 -305 39 0
-35 305 36 0
36 306 -37 0
36 -306 -38 0
-36 -306 38 0
-36 306 37 0
37 -307 -326 0
37 307 -327 0
-37 307 327 0
-37 -307 326 0
38 -307 -324 0
38 307 -325 0
-38 307 325 0
-38 -307 324 0
39 306 -40 0
39 -306 -41 0
-39 -306 41 0
-39 306 40 0
40 -307 -322 0
40 307 -323 0
-40 307 323 0
-40 -307 322 0
41 -307 -320 0
41 307 -321 0
-41 307 321 0
-41 -307 320 0
42 304 -43 0
42 -304 -50 0
-42 -304 50 0
-42 304 43 0
43 305 -44 0
43 -305 -47 0
-43 -305 47 0
-43 305 44 0
44 306 -45 0
44 -306 -46 0
-44 -306 46 0
-44 306 45 0
45 -307 -318 0
45 307 -319 0
-45 307 319 0
-45 -307 318 0
46 -307 -316 0
46 307 -317 0
-46 307 317 0
-46 -307 316 0
47 306 -48 0
47 -306 -49 0
-47 -306 49 0
-47 306 48 0
48 -307 -314 0
48 307 -315 0
-48 307 315 0
-48 -307 314 0
49 -307 -312 0
49 307 -313 0
-49 307 313 0
-49 -307 312 0
50 305 -51 0
-50 -305 0
-50 51 0
51 306 -52 0
51 -306 -53 0
-51 -306 53 0
-51 306 52 0
52 -307 -310 0
52 307 -311 0
-52 307 311 0
-52 -307 310 0
53 -307 -308 0
53 307 -309 0
-53 307 309 0
-53 -307 308 0
-54 55 63 3 114 0
54 -63 0
54 -114 0
54 -55 0
54 -3 0
55 4 -56 0
-55 -4 0
-55 56 0
56 304 -57 0
56 -304 -17 0
-56 -304 17 0
-56 304 57 0
57 305 -58 0
57 -305 -61 0
-57 -305 61 0
-57 305 58 0
58 306 -59 0
58 -306 -60 0
-58 -306 60 0
-58 306 59 0
59 -307 -315 0
59 307 -316 0
-59 307 316 0
-59 -307 315 0
60 -307 -313 0
60 307 -314 0
-60 307 314 0
-60 -307 313 0
61 306 -62 0
61 -306 -23 0
-61 -306 23 0
-61 306 62 0
62 -307 -311 0
62 307 -312 0
-62 307 312 0
-62 -307 311 0
-63 64 83 0
63 -64 0
63 -83 0
-64 -5 0
-64 -303 68 0
-64 65 68 0
64 5 -68 0
64 303 5 -65 0
65 304 -66 0
65 -304 -67 0
-65 -304 67 0
-65 304 66 0
66 305 -39 0
66 -305 -44 0
-66 -305 44 0
-66 305 39 0
67 305 -47 0
67 -305 -51 0
-67 -305 51 0
-67 305 47 0
-68 303 69 0
-68 -303 16 0
68 -303 -16 0
68 303 -69 0
-69 304 73 0
-69 -304 57 70 0
69 -304 -57 0
69 304 -73 0
69 -304 -70 0
70 305 -71 0
70 -305 -72 0
-70 -305 72 0
-70 305 71 0
71 306 -46 0
71 -306 -48 0
-71 -306 48 0
-71 306 46 0
72 306 -49 0
72 -306 -52 0
-72 -306 52 0
-72 306 49 0
-73 -305 74 0
-73 305 79 82 0
73 305 -82 0
73 -305 -74 0
73 305 -79 0
-74 75 78 0
74 -75 0
74 -78 0
75 306 -76 0
75 -306 -77 0
-75 -306 77 0
-75 306 76 0
76 -307 -319 0
76 307 -320 0
-76 307 320 0
-76 -307 319 0
77 -307 -317 0
77 307 -318 0
-77 307 318 0
-77 -307 317 0
78 306 -41 0
78 -306 -45 0
-78 -306 45 0
-78 306 41 0
79 306 -80 0
79 -306 -81 0
-79 -306 81 0
-79 306 80 0
80 -307 -323 0
80 307 -324 0
-80 307 324 0
-80 -307 323 0
81 -307 -321 0
81 307 -322 0
-81 307 322 0
-81 -307 321 0
82 306 -38 0
82 -306 -40 0
-82 -306 40 0
-82 306 38 0
83 303 5 -92 0
83 -303 5 -84 0
-83 -5 0
-83 303 92 0
-83 -303 84 0
-84 56 85 86 89 0
84 -89 0
84 -86 0
84 -56 0
84 -85 0
85 -304 -18 0
85 -304 -21 0
-85 304 0
-85 18 21 0
86 304 -67 0
86 304 -87 0
-86 -304 0
-86 67 87 0
87 -305 -22 0
87 305 -88 0
-87 305 88 0
-87 -305 22 0
88 306 -60 0
88 -306 -62 0
-88 -306 62 0
-88 306 60 0
89 304 -70 0
89 304 -90 0
-89 -304 0
-89 70 90 0
90 -305 -88 0
90 305 -91 0
-90 305 91 0
-90 -305 88 0
91 -306 -59 0
91 306 -77 0
-91 306 77 0
-91 -306 59 0
-92 -304 110 0
-92 304 93 100 0
92 304 -93 0
92 -304 -110 0
92 304 -100 0
93 -305 -94 0
93 -305 -99 0
93 -305 -97 0
-93 305 0
-93 94 97 99 0
94 306 -95 0
94 -306 -96 0
-94 -306 96 0
-94 306 95 0
95 -307 -329 0
95 307 -330 0
-95 307 330 0
-95 -307 329 0
96 -307 -327 0
96 307 -328 0
-96 307 328 0
-96 -307 327 0
97 306 -96 0
97 -306 -98 0
-97 -306 98 0
-97 306 96 0
98 -307 -325 0
98 307 -326 0
-98 307 326 0
-98 -307 325 0
99 306 -31 0
99 -306 -37 0
-99 -306 37 0
-99 306 31 0
-100 -305 107 109 0
-100 101 107 109 0
100 -109 0
100 -107 0
100 305 -101 0
-101 102 104 105 0
101 -102 0
101 -105 0
101 -104 0
102 -306 -95 0
102 306 -103 0
-102 306 103 0
-102 -306 95 0
103 -307 -331 0
103 307 -332 0
-103 307 332 0
-103 -307 331 0
104 -306 -30 0
104 306 -34 0
-104 306 34 0
-104 -306 30 0
105 -306 -103 0
105 306 -106 0
-105 306 106 0
-105 -306 103 0
106 -307 -333 0
106 307 -334 0
-106 307 334 0
-106 -307 333 0
107 305 -94 0
107 -305 -108 0
-107 -305 108 0
-107 305 94 0
108 -306 -80 0
108 306 -98 0
-108 306 98 0
-108 -306 80 0
109 305 -29 0
109 -305 -36 0
-109 -305 36 0
-109 305 29 0
-110 66 73 111 113 0
110 -73 0
110 -113 0
110 -66 0
110 -111 0
111 -305 -91 0
111 305 -112 0
-111 305 112 0
-111 -305 91 0
112 -306 -76 0
112 306 -81 0
-112 306 81 0
-112 -306 76 0
113 305 -108 0
113 -305 -112 0
-113 -305 112 0
-113 305 108 0
114 4 -115 0
-114 -4 0
-114 115 0
115 304 -50 0
-115 -304 0
-115 50 0
-116 26 117 132 0
-116 117 132 -142 0
116 -132 0
116 -117 0
116 -26 142 0
-117 118 119 124 0
117 -118 0
117 -124 0
117 -119 0
118 4 -86 0
-118 -4 0
-118 86 0
119 4 -120 0
-119 -4 0
-119 120 0
120 304 -121 0
120 304 -123 0
-120 -304 0
-120 121 123 0
121 305 -61 0
121 -305 -122 0
-121 -305 122 0
-121 305 61 0
122 306 307 -308 0
-122 308 0
-122 -307 0
-122 -306 0
123 305 -72 0
123 -305 -19 0
-123 -305 19 0
-123 305 72 0
124 -42 4 0
124 4 -125 0
124 4 -130 0
-124 -4 0
-124 42 125 130 0
-125 89 126 128 0
125 -89 0
125 -128 0
125 -126 0
126 -304 -123 0
126 304 -127 0
-126 304 127 0
-126 -304 123 0
127 -305 -71 0
127 305 -78 0
-127 305 78 0
-127 -305 71 0
128 -304 -121 0
128 304 -129 0
-128 304 129 0
-128 -304 121 0
129 -305 -58 0
129 305 -75 0
-129 305 75 0
-129 -305 58 0
-130 85 131 0
130 -85 0
130 -131 0
131 -304 -87 0
131 304 -111 0
-131 304 111 0
-131 -304 87 0
-132 133 137 0
132 -133 0
132 -137 0
133 303 5 -134 0
133 -303 5 -136 0
-133 -5 0
-133 -303 136 0
-133 303 134 0
134 -304 -43 0
134 304 -135 0
134 -304 -90 0
-134 304 135 0
-134 -304 43 90 0
-135 35 113 0
135 -35 0
135 -113 0
-136 20 115 0
136 -20 0
136 -115 0
137 303 5 -138 0
137 -303 5 -120 0
-137 -5 0
-137 -303 120 0
-137 303 138 0
138 304 -141 0
138 -304 -139 0
138 304 -140 0
-138 -304 139 0
-138 304 140 141 0
-139 127 129 0
139 -127 0
139 -129 0
140 -305 -79 0
140 305 -97 0
-140 305 97 0
-140 -305 79 0
141 -305 -82 0
141 305 -99 0
-141 305 99 0
-141 -305 82 0
142 -143 -148 0
142 -294 143 0
-142 -143 148 0
-142 294 143 0
143 303 5 -144 0
143 -303 5 -128 0
-143 -5 0
-143 303 144 0
-143 -303 128 0
-144 -304 140 0
-144 304 145 0
144 -304 -140 0
144 304 -145 0
-145 -305 102 0
-145 305 146 0
145 -305 -102 0
145 305 -146 0
-146 306 147 0
-146 -306 106 0
146 -306 -106 0
146 306 -147 0
147 -307 -335 0
147 307 -336 0
-147 307 336 0
-147 -307 335 0
148 149 -154 0
148 -149 -168 0
-148 -149 168 0
-148 149 154 0
149 303 5 -150 0
149 -303 5 -126 0
-149 -5 0
-149 303 150 0
-149 -303 126 0
-150 -304 141 0
-150 304 151 0
150 -304 -141 0
150 304 -151 0
-151 -305 104 0
-151 305 152 0
151 -305 -104 0
151 305 -152 0
-152 306 153 0
-152 -306 33 0
152 -306 -33 0
152 306 -153 0
153 -307 -336 0
153 307 -337 0
-153 307 337 0
-153 -307 336 0
154 -155 -167 0
154 155 -160 0
-154 155 160 0
-154 -155 167 0
155 303 5 -156 0
155 -303 5 -131 0
-155 -5 0
-155 303 156 0
-155 -303 131 0
-156 -304 107 0
-156 304 157 0
156 -304 -107 0
156 304 -157 0
-157 -305 105 0
-157 305 158 0
157 -305 -105 0
157 305 -158 0
-158 306 159 0
-158 -306 147 0
158 -306 -147 0
158 306 -159 0
159 -307 -337 0
159 307 -338 0
-159 307 338 0
-159 -307 337 0
-160 302 161 0
160 -302 0
160 -161 0
161 -303 -162 0
-161 303 0
-161 162 0
162 303 5 -163 0
162 -303 5 -65 0
-162 -5 0
-162 303 163 0
-162 -303 65 0
-163 -304 109 0
-163 304 164 0
163 -304 -109 0
163 304 -164 0
-164 -305 32 0
-164 305 165 0
164 -305 -32 0
164 305 -165 0
-165 306 166 0
-165 -306 153 0
165 -306 -153 0
165 306 -166 0
166 -307 -338 0
166 307 -339 0
-166 307 339 0
-166 -307 338 0
-167 304 162 0
-167 305 -162 0
167 -305 -162 0
167 -304 162 0
168 155 -169 0
-168 -155 0
-168 169 0
-169 306 162 0
-169 307 -162 0
169 -307 -162 0
169 -306 162 0
170 26 143 171 -175 0
-170 -26 0
-170 175 0
-170 -171 0
-170 -143 0
-171 172 174 0
171 -172 0
171 -174 0
-172 64 119 124 173 0
172 -173 0
172 -124 0
172 -64 0
172 -119 0
-173 55 118 0
173 -55 0
173 -118 0
-174 83 132 0
174 -83 0
174 -132 0
175 149 155 -176 0
-175 -149 0
-175 176 0
-175 -155 0
-176 304 162 0
-176 303 -162 0
176 -304 162 0
176 -303 -162 0
177 178 -181 0
-177 -178 0
-177 181 0
-178 114 179 0
178 -114 0
178 -179 0
-179 83 133 172 180 0
179 -83 0
179 -180 0
179 -172 0
179 -133 0
-180 26 137 0
180 -26 0
180 -137 0
181 143 -182 0
-181 -143 0
-181 182 0
182 149 -183 0
-182 -149 0
-182 183 0
183 -155 -169 0
183 155 -167 0
-183 155 167 0
-183 -155 169 0
-184 187 191 0
-184 -185 187 0
-184 -277 187 0
184 -187 0
184 277 185 -191 0
-185 3 186 0
185 -3 0
185 -186 0
-186 114 172 174 0
186 -174 0
186 -172 0
186 -114 0
187 276 -26 185 -188 0
-187 -276 0
-187 188 0
-187 -185 0
-187 26 0
188 -143 -189 0
188 -292 143 0
-188 -143 189 0
-188 292 143 0
189 -149 -183 0
189 149 -190 0
-189 149 190 0
-189 -149 183 0
190 -155 -160 0
190 -300 155 0
-190 -155 160 0
-190 300 155 0
191 -26 -192 0
-191 26 0
-191 192 0
192 -143 -193 0
192 -293 143 0
-192 -143 193 0
-192 293 143 0
193 149 -194 0
193 -149 -196 0
-193 -149 196 0
-193 149 194 0
194 -155 -195 0
194 -301 155 0
-194 -155 195 0
-194 301 155 0
-195 303 162 0
-195 304 -162 0
195 -304 -162 0
195 -303 162 0
196 -155 -198 0
196 155 -197 0
-196 155 197 0
-196 -155 198 0
-197 305 162 0
-197 306 -162 0
197 -306 -162 0
197 -305 162 0
198 -307 162 0
-198 307 0
-198 -162 0
199 114 -249 0
199 114 -200 0
199 114 -253 0
-199 -114 0
-199 200 249 253 0
-200 -290 206 215 0
-200 201 206 215 0
200 -215 0
200 -206 0
200 290 -201 0
201 -26 171 -204 0
201 26 171 -202 0
-201 -171 0
-201 -26 204 0
-201 26 202 0
-202 290 203 0
-202 290 143 0
202 -290 0
202 -143 -203 0
203 -149 -154 0
203 -298 149 0
-203 -149 154 0
-203 298 149 0
204 143 -205 0
-204 -143 0
-204 205 0
205 149 -168 0
-205 -149 0
-205 168 0
-206 207 210 0
-206 -179 207 0
-206 -299 207 0
206 -207 0
206 299 179 -210 0
207 296 179 -208 0
-207 208 0
-207 -179 0
-207 -296 0
208 -143 -182 0
208 143 -209 0
-208 143 209 0
-208 -143 182 0
209 -149 -190 0
209 -296 149 0
-209 -149 190 0
-209 296 149 0
210 143 -211 0
210 -143 -213 0
-210 -143 213 0
-210 143 211 0
211 -149 -212 0
211 -299 149 0
-211 -149 212 0
-211 299 149 0
212 -155 -197 0
212 155 -195 0
-212 155 195 0
-212 -155 197 0
213 149 -214 0
-213 -149 0
-213 214 0
214 155 -198 0
-214 -155 0
-214 198 0
-215 216 225 241 245 0
215 -245 0
215 -216 0
215 -225 0
215 -241 0
-216 -289 217 0
-216 -291 220 0
-216 -289 -291 0
-216 217 220 0
216 289 -220 0
216 291 -217 0
217 -26 171 -219 0
217 26 171 -218 0
-217 -171 0
-217 -26 219 0
-217 26 218 0
-218 291 211 0
-218 291 143 0
218 -291 0
218 -143 -211 0
219 143 -213 0
-219 -143 0
-219 213 0
220 -26 171 -223 0
220 26 171 -221 0
-220 -171 0
-220 -26 223 0
-220 26 221 0
-221 289 222 0
-221 289 143 0
221 -289 0
221 -143 -222 0
222 -149 -194 0
222 -297 149 0
-222 -149 194 0
-222 297 149 0
223 143 -224 0
-223 -143 0
-223 224 0
224 149 -196 0
-224 -149 0
-224 196 0
-225 226 -235 239 0
-225 226 236 239 0
225 -226 0
225 -239 0
225 235 -236 0
-226 227 234 0
-226 178 -219 234 0
226 -234 0
226 219 -227 0
226 -178 -227 0
227 26 143 171 -228 0
-227 -26 0
-227 228 0
-227 -171 0
-227 -143 0
-228 149 229 0
-228 -149 232 0
228 -149 -232 0
228 149 -229 0
-229 -155 231 0
-229 155 230 198 0
229 155 -230 0
229 -155 -231 0
229 155 -198 0
230 -306 -162 0
-230 306 0
-230 162 0
-231 305 162 0
-231 304 -162 0
231 -305 162 0
231 -304 -162 0
232 155 -233 0
-232 -155 0
-232 233 0
233 -303 162 0
-233 303 0
-233 -162 0
234 283 -26 171 -210 0
-234 -283 0
-234 210 0
-234 -171 0
-234 26 0
235 178 -204 0
-235 -178 0
-235 204 0
236 26 143 171 -237 0
-236 -26 0
-236 237 0
-236 -171 0
-236 -143 0
237 149 -155 -176 0
237 149 155 -238 0
-237 -149 0
-237 -155 176 0
-237 155 238 0
-238 306 162 0
-238 305 -162 0
238 -306 162 0
238 -305 -162 0
239 286 -26 171 -240 0
-239 -286 0
-239 240 0
-239 -171 0
-239 26 0
240 143 -148 0
-240 -143 0
-240 148 0
241 -171 179 -243 0
241 179 242 -243 0
-241 243 0
-241 -179 0
-241 171 -242 0
242 26 143 149 -232 0
-242 232 0
-242 -149 0
-242 -26 0
-242 -143 0
243 143 -244 0
-243 -143 0
-243 244 0
244 149 -212 0
244 -149 -214 0
-244 -149 214 0
-244 149 212 0
-245 -179 0
-245 -300 247 0
-245 246 247 0
245 179 -247 0
245 300 179 -246 0
246 143 -189 0
-246 -143 0
-246 189 0
-247 -294 248 0
-247 142 248 0
247 -248 0
247 294 -142 0
-248 -293 188 0
-248 -292 192 0
-248 -292 -293 0
-248 188 192 0
248 293 -192 0
248 292 -188 0
-249 250 252 0
-249 -179 250 0
-249 -297 250 0
249 -250 0
249 297 179 -252 0
250 282 -26 171 -251 0
-250 -282 0
-250 251 0
-250 -171 0
-250 26 0
251 143 -203 0
251 -143 -205 0
-251 -143 205 0
-251 143 203 0
252 143 -222 0
252 -143 -224 0
-252 -143 224 0
-252 143 222 0
-253 254 263 269 270 0
253 -263 0
253 -270 0
253 -254 0
253 -269 0
-254 255 258 261 0
-254 -288 255 258 0
254 -258 0
254 -255 0
254 288 -261 0
-255 256 257 0
-255 -179 256 0
-255 -295 256 0
255 -256 0
255 295 179 -257 0
256 302 179 -240 0
-256 240 0
-256 -179 0
-256 -302 0
257 -143 -244 0
257 -295 143 0
-257 -143 244 0
-257 295 143 0
-258 -179 259 0
-258 -298 259 0
-258 251 259 0
258 -259 0
258 298 179 -251 0
259 285 -26 171 -260 0
-259 -285 0
-259 260 0
-259 -171 0
-259 26 0
260 143 -193 0
-260 -143 0
-260 193 0
261 26 171 -262 0
261 -26 171 -181 0
-261 -171 0
-261 26 262 0
-261 -26 181 0
-262 288 209 0
-262 288 143 0
262 -288 0
262 -143 -209 0
-263 -179 264 0
-263 260 264 0
-263 -301 264 0
263 -264 0
263 301 179 -260 0
-264 265 -266 0
-264 265 267 0
264 -265 0
264 266 -267 0
265 281 -26 171 -252 0
-265 -281 0
-265 252 0
-265 -171 0
-265 26 0
266 178 -223 0
-266 -178 0
-266 223 0
267 26 143 171 -268 0
-267 -26 0
-267 268 0
-267 -171 0
-267 -143 0
268 149 -155 -233 0
268 149 155 -231 0
-268 -149 0
-268 -155 233 0
-268 155 231 0
269 284 -26 171 -246 0
-269 -284 0
-269 246 0
-269 -171 0
-269 26 0
270 287 -26 171 -243 0
-270 -287 0
-270 243 0
-270 -171 0
-270 26 0
-271 235 272 273 0
-271 -236 272 273 0
271 -273 0
271 -272 0
271 -235 236 0
272 280 -26 186 -208 0
-272 -280 0
-272 208 0
-272 -186 0
-272 26 0
-273 266 274 275 0
-273 -267 274 275 0
273 -275 0
273 -274 0
273 -266 267 0
274 279 -26 186 -257 0
-274 -279 0
-274 257 0
-274 -186 0
-274 26 0
275 170 -177 0
-275 -170 0
-275 177 0
-340 0
2 0

